32	0

0	1	2
10	1	3
5	1	4
4	1	5
8	2	6	7
7	1	8
5	1	8
4	1	9
4	1	10
5	1	11
4	1	12
10	2	13	14
6	1	15
3	1	15
7	2	16	17
2	1	18
7	1	18
3	1	19
5	1	20
6	1	21
3	1	22
1	1	23
1	1	24
1	1	25
7	1	26
6	1	27
2	1	28
5	1	29
2	1	30
8	1	31
2	1	32
0	0
